5 5
4 53 1 61 2 33 0 45 3 94
4 40 1 24 3 92 0 45 2 38
4 29 2 79 0 8 3 64 1 87
3 73 4 51 0 75 1 6 2 47
3 49 0 76 2 98 4 85 1 32
-1
0 1 5
0 2 4 5
0 1 3 4 5
0 3 5
0 4 5
-2
82 305
86 246 372
30 173 184 309
208 396
384 416

391 6
21 12 3 17 8
1 6 14 18 24
11 2 22 19 9
20 15 13 7 4
10 0 5 16 23
